Eu4 Ti4 O12
   1.00000000000000
     3.8894989172591279    3.8894989172591279    0.0000000000000000
    -3.8894989172591279    3.8894989172591279    0.0000000000000000
     0.0000000000000000    0.0000000000000000    7.7789978345182558
   Eu   Ti   O
     4     4    12
Direct
  0.0000000000000000  0.0000000000000000  0.9830564910436671
  0.0000000000000000 -0.0000000000000000  0.4830586511668690
  0.5000000000000000  0.5000000000000000  0.9830564910436671
  0.5000000000000000  0.5000000000000000  0.4830586511668690
  0.5000000000000000 -0.0000000000000000  0.2330481617203901
  0.5000000000000000 -0.0000000000000000  0.7330486988142224
  0.0000000000000000  0.5000000000000000  0.2330481617203901
  0.0000000000000000  0.5000000000000000  0.7330486988142224
  0.7500000000000000  0.7500000000000000  0.2330178640700115
  0.7500000000000000  0.7500000000000000  0.7330186058630208
  0.2500000000000000  0.2500000000000000  0.2330178640700115
  0.2500000000000000  0.2500000000000000  0.7330186058630208
  0.7500000000000000  0.2500000000000000  0.2330178640700115
  0.7500000000000000  0.2500000000000000  0.7330186058630208
  0.2500000000000000  0.7500000000000000  0.2330178640700115
  0.2500000000000000  0.7500000000000000  0.7330186058630208
  0.5000000000000000  0.0000000000000000  0.9830246346501784
  0.5000000000000000  0.0000000000000000  0.4830248511477255
 -0.0000000000000000  0.5000000000000000  0.9830246346501784
 -0.0000000000000000  0.5000000000000000  0.4830248511477255