Eu4 Ti4 O12
   1.00000000000000
     3.8894989172591279    3.8894989172591279   -0.0000000000000000
    -3.8894989172591279    3.8894989172591279   -0.0000000000000000
     0.0000000000000000    0.0000000000000000    7.7789978345182558
   Eu   Ti   O
     4     4    12
Direct
 -0.0000000000000000 -0.0000000000000000  0.0000000000000000
  0.0000000000000000 -0.0000000000000000  0.5000000000000000
  0.5000000000000000  0.5000000000000000  0.0000000000000000
  0.5000000000000000  0.5000000000000000  0.5000000000000000
 -0.0000000000000000  0.5000000000000000  0.2500000000000000
 -0.0000000000000000  0.5000000000000000  0.7500000000000000
  0.5000000000000000 -0.0000000000000000  0.2500000000000000
  0.5000000000000000 -0.0000000000000000  0.7500000000000000
  0.7147701628080394  0.2852298371919608  0.2500000000000000
  0.7852298371919606  0.2147701628080393  0.7500000000000000
  0.2852298371919608  0.7147701628080394  0.2500000000000000
  0.2147701628080393  0.7852298371919606  0.7500000000000000
  0.2147701628080393  0.2147701628080393  0.2500000000000000
  0.2852298371919608  0.2852298371919608  0.7500000000000000
  0.7852298371919606  0.7852298371919606  0.2500000000000000
  0.7147701628080394  0.7147701628080394  0.7500000000000000
 -0.0000000000000000  0.5000000000000000  0.0000000000000000
 -0.0000000000000000  0.5000000000000000  0.5000000000000000
  0.5000000000000000 -0.0000000000000000  0.0000000000000000
  0.5000000000000000 -0.0000000000000000  0.5000000000000000
