Bulk EuTiO3
   1.00000000000000
     3.9470353885849501    3.9470353885849501    0.0000000000000000
    -3.9317586386408405    3.9317586386408405    0.0000000000000000
     0.0000000000000000    0.0000000000000000    7.8482828286823887
   Eu   Ti   O
     4     4    12
Direct
  0.0019779326199059  0.9999592318517562 -0.0000000000000000
  0.9980220673800940  0.0000407681482436  0.5000000000000000
  0.4980220673800942  0.4999592318517563 -0.0000000000000000
  0.5019779326199060  0.5000407681482438  0.5000000000000000
 -0.0000000000000000  0.5000000000000000  0.2500000000000000
 -0.0000000000000000  0.5000000000000000  0.7500000000000000
  0.5000000000000000  0.0000000000000000  0.2500000000000000
  0.5000000000000000  0.0000000000000000  0.7500000000000000
  0.7499439736222373  0.2500567533369691  0.2719854503711279
  0.7499439736222373  0.2500567533369691  0.7280145496288719
  0.2500560263777630  0.7499432466630314  0.2280145496288720
  0.2500560263777630  0.7499432466630314  0.7719854503711281
  0.2499439736222371  0.2499432466630309  0.2280145496288720
  0.2499439736222371  0.2499432466630309  0.7719854503711281
  0.7500560263777627  0.7500567533369686  0.2719854503711279
  0.7500560263777627  0.7500567533369686  0.7280145496288719
  0.9574162546173696  0.5000119886375290 -0.0000000000000000
  0.0425837453826306  0.4999880113624779  0.5000000000000000
  0.5425837453826304  0.0000119886375221 -0.0000000000000000
  0.4574162546173692  0.9999880113624710  0.5000000000000000