Eu1 Ti1 O3
1.0
   3.9049999999999998    0.0000000000000000    0.0000000000000002
   0.0000000000000006    3.9049999999999998    0.0000000000000002
   0.0000000000000000    0.0000000000000000    3.9049999999999998
Eu Ti O
1 1 3
direct
   0.0000000000000000    0.0000000000000000    0.0000000000000000 Eu
   0.5000000000000000    0.5000000000000000    0.5000000000000000 Ti
   0.0019026509541272    0.4564221286261709    0.4999999999999999 O
   0.5435778713738291    0.0019026509541272    0.4999999999999999 O
   0.4999999999999999    0.4999999999999999   -0.0000000000000000 O
